Problem:    
Rows:       256
Columns:    89 (72 integer, 72 binary)
Non-zeros:  960
Status:     INTEGER OPTIMAL
Objective:  value = 15.509511 (MINimum)

   No.   Row name        Activity     Lower bound   Upper bound
------ ------------    ------------- ------------- -------------
     1 r.5                   1015.51             0               
     2 r.6                  -989.887       -997.55               
     3 r.7                   15.5095             0               
     4 r.8                  -988.917      -991.141               
     5 r.9                   15.5095             0               
     6 r.10                  14.4622      -996.819               
     7 r.11                  1015.51             0               
     8 r.12                 -988.441      -990.664               
     9 r.13                  1015.51             0               
    10 r.14                 -992.337      -997.345               
    11 r.15                  15.5095             0               
    12 r.16                  12.8951      -986.327               
    13 r.17                  1015.51             0               
    14 r.18                 -994.992      -998.538               
    15 r.19                  15.5095             0               
    16 r.20                  5.00767       -990.82               
    17 r.21                  1015.51             0               
    18 r.22                 -996.455      -998.679               
    19 r.23                  15.5095             0               
    20 r.24                  10.6012      -992.947               
    21 r.25                  1015.51             0               
    22 r.26                 -999.343      -999.343               
    23 r.27                  15.5095             0               
    24 r.28                 -992.479      -992.479               
    25 r.29                  1015.51             0               
    26 r.30                 -987.105      -997.706               
    27 r.31                  15.5095             0               
    28 r.32                 -983.626      -994.227               
    29 r.33                  1015.51             0               
    30 r.34                  -984.49      -997.386               
    31 r.35                  15.5095             0               
    32 r.36                  15.5095      -993.326               
    33 r.37                        1             1             = 
    34 r.38                        1             1             = 
    35 r.39                        1             1             = 
    36 r.40                        1             1             = 
    37 r.41                        1             1             = 
    38 r.42                        1             1             = 
    39 r.43                        1             1             = 
    40 r.44                        1             1             = 
    41 r.45                     1001             2               
    42 r.46                    -1001         -1001               
    43 r.47                  2004.35      -996.819               
    44 r.48                     1001             2               
    45 r.49                    -1001         -1001               
    46 r.50                  3000.48      -990.664               
    47 r.51                        2             2               
    48 r.52                       -2         -1001               
    49 r.53                 -2.44996      -997.345               
    50 r.54                     1000             2               
    51 r.55                    -1000         -1001               
    52 r.56                  3001.81      -986.327               
    53 r.57                        2             2               
    54 r.58                       -2         -1001               
    55 r.59                 -5.10501      -998.538               
    56 r.60                     1000             2               
    57 r.61                    -1000         -1001               
    58 r.62                  2993.93       -990.82               
    59 r.63                        2             2               
    60 r.64                       -2         -1001               
    61 r.65                 -6.56748      -998.679               
    62 r.66                     1000             2               
    63 r.67                    -1000         -1001               
    64 r.68                  2999.52      -992.947               
    65 r.69                 -992.111       -997.55               
    66 r.70                 -991.141      -991.141               
    67 r.71                  3.92745       -997.55               
    68 r.72                  4.89744      -991.141               
    69 r.73                 -997.218      -997.706               
    70 r.74                 -993.739      -994.227               
    71 r.75                  1.81244      -997.706               
    72 r.76                    5.291      -994.227               
    73 r.77                        2             2               
    74 r.78                       -2         -1001               
    75 r.79                 -994.603      -997.386               
    76 r.80                     1000             2               
    77 r.81                    -1000         -1001               
    78 r.82                  3004.43      -993.326               
    79 r.83                     1001             2               
    80 r.84                    -1001         -1001               
    81 r.85                  1997.22       2.44996               
    82 r.86                     1001             2               
    83 r.87                    -1001         -1001               
    84 r.88                  998.188       8.85896               
    85 r.89                     1001             2               
    86 r.90                    -1001         -1001               
    87 r.91                  1994.77      -997.345               
    88 r.92                     1001             2               
    89 r.93                    -1001         -1001               
    90 r.94                     2000      -986.327               
    91 r.95                     1001             2               
    92 r.96                    -1001         -1001               
    93 r.97                  1992.11      -998.538               
    94 r.98                     1001             2               
    95 r.99                    -1001         -1001               
    96 r.100                 1992.11       -990.82               
    97 r.101                    1001             2               
    98 r.102                   -1001         -1001               
    99 r.103                 1990.65      -998.679               
   100 r.104                    1001             2               
   101 r.105                   -1001         -1001               
   102 r.106                 1997.71      -992.947               
   103 r.107                 12.2385      -996.819               
   104 r.108                -990.664      -990.664               
   105 r.109                 1008.28      -996.819               
   106 r.110                 5.37421      -990.664               
   107 r.111                    1001             2               
   108 r.112                   -1001         -1001               
   109 r.113                    2000      -997.706               
   110 r.114                    1001             2               
   111 r.115                   -1001         -1001               
   112 r.116                 1003.48      -994.227               
   113 r.117                -997.386      -997.386               
   114 r.118                  2.6144      -993.326               
   115 r.119                -997.386      -997.386               
   116 r.120                  2.6144      -993.326               
   117 r.121                       2             2               
   118 r.122                      -2         -1001               
   119 r.123                 2.44996       2.44996               
   120 r.124                    1000             2               
   121 r.125                   -1000         -1001               
   122 r.126                 998.188       8.85896               
   123 r.127                    1001             2               
   124 r.128                   -1001         -1001               
   125 r.129                  2006.8       3.18118               
   126 r.130                    1001             2               
   127 r.131                   -1001         -1001               
   128 r.132                 1998.66       9.33574               
   129 r.133                -997.345      -997.345               
   130 r.134                 7.88744      -986.327               
   131 r.135                -997.345      -997.345               
   132 r.136                 7.88744      -986.327               
   133 r.137                       2             2               
   134 r.138                      -2         -1001               
   135 r.139                -4.11752      -998.679               
   136 r.140                    1000             2               
   137 r.141                   -1000         -1001               
   138 r.142                 1997.71      -992.947               
   139 r.143                -994.561      -997.345               
   140 r.144                 10.6714      -986.327               
   141 r.145                 1.47748      -997.345               
   142 r.146                 1006.71      -986.327               
   143 r.147                       2             2               
   144 r.148                      -2         -1001               
   145 r.149                -994.768      -997.706               
   146 r.150                    1000             2               
   147 r.151                   -1000         -1001               
   148 r.152                 1003.48      -994.227               
   149 r.153                -992.153      -997.386               
   150 r.154                  7.8468      -993.326               
   151 r.155                -997.386      -997.386               
   152 r.156                  2.6144      -993.326               
   153 r.157                       2             2               
   154 r.158                      -2         -1001               
   155 r.159                 5.10501       2.44996               
   156 r.160                    1000             2               
   157 r.161                   -1000         -1001               
   158 r.162                 1006.07       8.85896               
   159 r.163                    1001             2               
   160 r.164                   -1001         -1001               
   161 r.165                 2009.45       3.18118               
   162 r.166                    1001             2               
   163 r.167                   -1001         -1001               
   164 r.168                 2006.55       9.33574               
   165 r.169                       2             2               
   166 r.170                      -2         -1001               
   167 r.171                -1.46248      -998.679               
   168 r.172                    1000             2               
   169 r.173                   -1000         -1001               
   170 r.174                 2005.59      -992.947               
   171 r.175                -997.216      -998.538               
   172 r.176                 2.78396       -990.82               
   173 r.177                -1.17756      -998.538               
   174 r.178                 998.822       -990.82               
   175 r.179                       2             2               
   176 r.180                      -2         -1001               
   177 r.181                -992.113      -997.706               
   178 r.182                    1000             2               
   179 r.183                   -1000         -1001               
   180 r.184                 1011.37      -994.227               
   181 r.185                -989.498      -997.386               
   182 r.186                 10.5018      -993.326               
   183 r.187                -989.498      -997.386               
   184 r.188                 10.5018      -993.326               
   185 r.189                       2             2               
   186 r.190                      -2         -1001               
   187 r.191                 6.56749       2.44996               
   188 r.192                    1000             2               
   189 r.193                   -1000         -1001               
   190 r.194                 1000.48       8.85896               
   191 r.195                    1001             2               
   192 r.196                   -1001         -1001               
   193 r.197                 2010.92       3.18118               
   194 r.198                    1001             2               
   195 r.199                   -1001         -1001               
   196 r.200                 2000.96       9.33574               
   197 r.201                       2             2               
   198 r.202                      -2         -1001               
   199 r.203                 4.11752       2.65504               
   200 r.204                    1000             2               
   201 r.205                   -1000         -1001               
   202 r.206                 2002.29       13.6729               
   203 r.207                       2             2               
   204 r.208                      -2         -1001               
   205 r.209                 1.46248       1.46248               
   206 r.210                    1000             2               
   207 r.211                   -1000         -1001               
   208 r.212                 1994.41       9.17994               
   209 r.213                -998.679      -998.679               
   210 r.214                 8.37746      -992.947               
   211 r.215                -2.64004      -998.679               
   212 r.216                 1004.42      -992.947               
   213 r.217                 -990.65      -997.706               
   214 r.218                -987.172      -994.227               
   215 r.219                -997.706      -997.706               
   216 r.220                -994.227      -994.227               
   217 r.221                -988.036      -997.386               
   218 r.222                 11.9643      -993.326               
   219 r.223                -995.092      -997.386               
   220 r.224                 4.90834      -993.326               
   221 r.225                    1001             2               
   222 r.226                   -1001         -1001               
   223 r.227                 2001.57       3.18118               
   224 r.228                    1001             2               
   225 r.229                   -1001         -1001               
   226 r.230                 2995.19       9.33574               
   227 r.231                       2             2               
   228 r.232                      -2         -1001               
   229 r.233                 994.768       2.65504               
   230 r.234                    1000             2               
   231 r.235                   -1000         -1001               
   232 r.236                 2996.52       13.6729               
   233 r.237                       2             2               
   234 r.238                      -2         -1001               
   235 r.239                 992.113       1.46248               
   236 r.240                    1000             2               
   237 r.241                   -1000         -1001               
   238 r.242                 2988.63       9.17994               
   239 r.243                       2             2               
   240 r.244                      -2         -1001               
   241 r.245                -997.386      -997.386               
   242 r.246                    1000             2               
   243 r.247                   -1000         -1001               
   244 r.248                 2999.14      -993.326               
   245 r.249                       2             2               
   246 r.250                      -2         -1001               
   247 r.251                 994.603       2.44996               
   248 r.252                    1000             2               
   249 r.253                   -1000         -1001               
   250 r.254                 995.573       8.85896               
   251 r.255                       2             2               
   252 r.256                      -2         -1001               
   253 r.257                 997.386       2.29394               
   254 r.258                    1000             2               
   255 r.259                   -1000         -1001               
   256 r.260                 1000.86        5.7725               

   No. Column name       Activity     Lower bound   Upper bound
------ ------------    ------------- ------------- -------------
     1 tt                    15.5095             0               
     2 s_1_1        *              1             0             1 
     3 t_1_1                 5.39683             0               
     4 s_1_7        *              1             0             1 
     5 s_2_1        *              0             0             1 
     6 t_2_1                 1004.43             0               
     7 s_2_7        *              0             0             1 
     8 s_1_2        *              0             0             1 
     9 t_1_2                  2.6144             0               
    10 s_1_8        *              1             0             1 
    11 s_2_2        *              1             0             1 
    12 t_2_2                  2.6144             0               
    13 s_2_8        *              0             0             1 
    14 s_1_3        *              1             0             1 
    15 t_1_3                  7.8468             0               
    16 s_2_3        *              0             0             1 
    17 t_2_3                  2.6144             0               
    18 s_1_4        *              1             0             1 
    19 t_1_4                 10.5018             0               
    20 s_2_4        *              0             0             1 
    21 t_2_4                 10.5018             0               
    22 s_1_5        *              1             0             1 
    23 t_1_5                 11.9643             0               
    24 s_2_5        *              0             0             1 
    25 t_2_5                 4.90834             0               
    26 s_1_6        *              1             0             1 
    27 t_1_6                 13.2858             0               
    28 s_2_6        *              0             0             1 
    29 t_2_6                 1009.32             0               
    30 t_1_7                  2.6144             0               
    31 t_2_7                 999.136             0               
    32 t_1_8                       0             0               
    33 t_2_8                       0             0               
    34 r_1_1_2      *              1             0             1 
    35 u_1_1_2      *              0             0             1 
    36 r_2_1_2      *              1             0             1 
    37 u_2_1_2      *              0             0             1 
    38 r_1_1_3      *              0             0             1 
    39 u_1_1_3      *              0             0             1 
    40 r_2_1_3      *              1             0             1 
    41 u_2_1_3      *              0             0             1 
    42 r_1_1_4      *              0             0             1 
    43 u_1_1_4      *              0             0             1 
    44 r_2_1_4      *              1             0             1 
    45 u_2_1_4      *              0             0             1 
    46 r_1_1_5      *              0             0             1 
    47 u_1_1_5      *              0             0             1 
    48 r_2_1_5      *              1             0             1 
    49 u_2_1_5      *              0             0             1 
    50 r_1_1_8      *              0             0             1 
    51 u_1_1_8      *              1             0             1 
    52 r_2_1_8      *              1             0             1 
    53 u_2_1_8      *              0             0             1 
    54 r_1_2_3      *              1             0             1 
    55 u_1_2_3      *              0             0             1 
    56 r_2_2_3      *              1             0             1 
    57 u_2_2_3      *              0             0             1 
    58 r_1_2_4      *              1             0             1 
    59 u_1_2_4      *              0             0             1 
    60 r_2_2_4      *              1             0             1 
    61 u_2_2_4      *              0             0             1 
    62 r_1_2_5      *              1             0             1 
    63 u_1_2_5      *              0             0             1 
    64 r_2_2_5      *              1             0             1 
    65 u_2_2_5      *              0             0             1 
    66 r_1_2_7      *              1             0             1 
    67 u_1_2_7      *              0             0             1 
    68 r_2_2_7      *              1             0             1 
    69 u_2_2_7      *              0             0             1 
    70 r_1_3_5      *              0             0             1 
    71 u_1_3_5      *              0             0             1 
    72 r_2_3_5      *              1             0             1 
    73 u_2_3_5      *              0             0             1 
    74 r_1_3_7      *              0             0             1 
    75 u_1_3_7      *              1             0             1 
    76 r_2_3_7      *              1             0             1 
    77 u_2_3_7      *              0             0             1 
    78 r_1_4_5      *              0             0             1 
    79 u_1_4_5      *              0             0             1 
    80 r_2_4_5      *              1             0             1 
    81 u_2_4_5      *              0             0             1 
    82 r_1_4_7      *              0             0             1 
    83 u_1_4_7      *              1             0             1 
    84 r_2_4_7      *              1             0             1 
    85 u_2_4_7      *              0             0             1 
    86 r_1_7_8      *              0             0             1 
    87 u_1_7_8      *              1             0             1 
    88 r_2_7_8      *              1             0             1 
    89 u_2_7_8      *              0             0             1 

Integer feasibility conditions:

KKT.PE: max.abs.err = 4.55e-13 on row 46
        max.rel.err = 7.57e-17 on row 46
        High quality

KKT.PB: max.abs.err = 0.00e+00 on row 0
        max.rel.err = 0.00e+00 on row 0
        High quality

End of output
